computational_data/solutions/C60.sol
Optimal - objective value 30.00000000
      2 r_2                         1                       1
      6 r_6                         1                       1
     10 r_10                        1                       1
     14 r_14                        1                       1
     18 r_18                        1                       1
     22 r_22                        1                       1
     26 r_26                        1                       1
     30 r_30                        1                       1
     34 r_34                        1                       1
     38 r_38                        1                       1
     42 r_42                        1                       1
     46 r_46                        1                       1
     50 r_50                        1                       1
     54 r_54                        1                       1
     58 r_58                        1                       1
     60 b_0                         1                       1
     64 b_4                         1                       1
     68 b_8                         1                       1
     72 b_12                        1                       1
     76 b_16                        1                       1
     80 b_20                        1                       1
     84 b_24                        1                       1
     88 b_28                        1                       1
     92 b_32                        1                       1
     96 b_36                        1                       1
    100 b_40                        1                       1
    104 b_44                        1                       1
    108 b_48                        1                       1
    112 b_52                        1                       1
    116 b_56                        1                       1
